\* Fantasy_Team *\
Maximize
OBJ: 8.62 DEF_ARI + 3.54 DEF_ATL + 10.4 DEF_BAL + 4.69 DEF_BUF + 3.33 DEF_CAR
 + 6.07 DEF_CHI + 2.75 DEF_DAL + 6.19 DEF_DEN + 2.44 DEF_DET + 2.69 DEF_HOU
 + 11.32 DEF_IND + 3.48 DEF_JAX + 9.09 DEF_KC + 5.4 DEF_LAC + 3.35 DEF_LV
 + 9.78 DEF_MIA + 3.56 DEF_MIN + 7.24 DEF_NYG + 11.73 DEF_PIT + 5.58 DEF_SEA
 + 3.93 DEF_TEN + 9.51 DEF_WSH + 3.13 QB_Ben_DiNucci
 + 17.84 QB_Ben_Roethlisberger + 2.97 QB_Chad_Henne + 12.04 QB_Daniel_Jones
 + 19 QB_Derek_Carr + 29.01 QB_Deshaun_Watson + 15.27 QB_Drew_Lock
 + 24.71 QB_Josh_Allen + 23.91 QB_Justin_Herbert + 16.87 QB_Kirk_Cousins
 + 26.09 QB_Kyler_Murray + 16.49 QB_Lamar_Jackson - 0.11 QB_Mason_Rudolph
 + 18.71 QB_Matt_Ryan + 23.86 QB_Matthew_Stafford + 16.2 QB_Nick_Foles
 + 20.99 QB_Patrick_Mahomes + 16.46 QB_Philip_Rivers + 28.72 QB_Russell_Wilson
 + 18.91 QB_Ryan_Fitzpatrick + 17.55 QB_Ryan_Tannehill
 + 11.82 QB_Teddy_Bridgewater + 2.92 QB_Tua_Tagovailoa
 + 6.41 RB_Adrian_Peterson + 5.83 RB_Alexander_Mattison
 + 1.56 RB_Ameer_Abdullah + 7.22 RB_Benny_Snell + 4.95 RB_Brian_Hill
 + 11.66 RB_Chase_Edmonds + 14.6 RB_Chris_Carson
 + 14.95 RB_Clyde_Edwards_Helaire + 10.9 RB_D'Andre_Swift
 + 37.97 RB_Dalvin_Cook + 5.25 RB_Darrel_Williams + 1.02 RB_Darwin_Thompson
 + 15.47 RB_David_Johnson + 11.58 RB_David_Montgomery
 + 1.1 RB_DeAndre_Washington + 11.38 RB_DeeJay_Dallas + 19.08 RB_Derrick_Henry
 + 8.21 RB_Devin_Singletary + 5.81 RB_Devonta_Freeman
 + 3.67 RB_Devontae_Booker + 3.61 RB_Dion_Lewis + 4.6 RB_Duke_Johnson
 + 1.22 RB_Elijhaa_Penny + 10.1 RB_Ezekiel_Elliott + 5.88 RB_Gabe_Nabers
 + 5.15 RB_Gus_Edwards + 1.52 RB_Ito_Smith + 5.17 RB_J.K._Dobbins
 + 3.02 RB_Jalen_Richard + 19.15 RB_James_Conner + 18.76 RB_James_Robinson
 + 0.54 RB_Jaylen_Samuels + 2.72 RB_Jeremy_McNichols + 9.23 RB_Jonathan_Taylor
 + 5.22 RB_Jordan_Wilkins + 11.52 RB_Josh_Jacobs + 6.57 RB_Joshua_Kelley
 + 12.43 RB_Justin_Jackson + 14.9 RB_Kenyan_Drake + 4.36 RB_Kerryon_Johnson
 + 0.58 RB_Khari_Blasingame + 6.21 RB_Le'Veon_Bell + 3.37 RB_Mark_Ingram
 + 2.86 RB_Matt_Breida + 10.57 RB_Melvin_Gordon + 1.54 RB_Mike_Boone
 + 13.23 RB_Mike_Davis + 8.67 RB_Nyheim_Hines + 1.03 RB_Patrick_Laird
 + 8.65 RB_Phillip_Lindsay + 0.28 RB_Qadree_Ollison + 1.05 RB_Rico_Dowdle
 + 2.41 RB_Royce_Freeman + 0.73 RB_Ryan_Nall + 13.01 RB_Todd_Gurley
 + 3.63 RB_Tony_Pollard + 2.06 RB_Travis_Homer + 1.74 RB_Trenton_Cannon
 + 14.66 RB_Troymaine_Pope + 8.86 RB_Wayne_Gallman + 9 RB_Zack_Moss
 + 4.63 TE_Adam_Shaheen + 9.64 TE_Albert_Okwuegbunam + 5.77 TE_Anthony_Firkser
 + 1.32 TE_Blake_Bell + 0.98 TE_Chris_Manhertz + 4.03 TE_Cole_Kmet
 + 6.82 TE_Dalton_Schultz + 4.3 TE_Dan_Arnold + 1.11 TE_Darrell_Daniels
 + 12.49 TE_Darren_Fells + 10.77 TE_Darren_Waller + 1.3 TE_Demetrius_Harris
 + 0.82 TE_Deon_Yelder + 3.92 TE_Durham_Smythe + 7.66 TE_Eric_Ebron
 + 5.86 TE_Evan_Engram + 2.6 TE_Foster_Moreau + 0.79 TE_Geoff_Swaim
 + 3.17 TE_Greg_Olsen + 8.43 TE_Hayden_Hurst + 7.24 TE_Hunter_Henry
 + 2.05 TE_Ian_Thomas + 4.07 TE_Irv_Smith + 0.98 TE_Isaac_Nauta
 + 5.36 TE_Jack_Doyle + 2.74 TE_Jacob_Hollister + 2.38 TE_James_O'Shaughnessy
 + 2.6 TE_Jason_Witten + 4.45 TE_Jesse_James + 7.97 TE_Jimmy_Graham
 + 5.92 TE_Jonnu_Smith + 1.57 TE_Kaden_Smith + 3.96 TE_Kyle_Rudolph
 + 1.35 TE_Levine_Toilolo + 0.26 TE_Luke_Stocker + 7.12 TE_Mark_Andrews
 + 5.08 TE_Mike_Gesicki + 5.63 TE_Mo_Alie_Cox + 1.71 TE_MyCole_Pruitt
 + 3.45 TE_Nick_Boyle + 0.86 TE_Nick_Keizer + 2.01 TE_Nick_Vannett
 + 11.17 TE_Noah_Fant + 3.33 TE_Pharaoh_Brown + 4.2 TE_Reggie_Gilliam
 + 12.76 TE_T.J._Hockenson + 12.18 TE_Travis_Kelce + 9.33 TE_Trey_Burton
 + 6.09 TE_Tyler_Kroft + 2.26 TE_Vance_McDonald + 3.04 TE_Will_Dissly
 + 13.06 WR_A.J._Brown + 5.54 WR_Adam_Humphries + 13.87 WR_Adam_Thielen
 + 14.64 WR_Allen_Robinson + 11.52 WR_Amari_Cooper + 3.44 WR_Andy_Isabella
 + 7.3 WR_Anthony_Miller + 1.57 WR_Ashton_Dulin + 0.53 WR_Austin_Mack
 + 13.19 WR_Brandin_Cooks + 0.95 WR_Brandon_Powell + 0.71 WR_Brandon_Zylstra
 + 3.42 WR_Byron_Pringle + 1.63 WR_C.J._Board + 13.54 WR_Calvin_Ridley
 + 9.25 WR_CeeDee_Lamb + 2.04 WR_Chad_Beebe + 12.58 WR_Chase_Claypool
 + 4 WR_Chris_Conley + 2.55 WR_Christian_Blake + 11.98 WR_Christian_Kirk
 + 12.1 WR_Cole_Beasley + 2.84 WR_Cordarrelle_Patterson + 11.84 WR_Corey_Davis
 + 9.31 WR_Curtis_Samuel + 12.18 WR_D.J._Chark + 9.95 WR_D.J._Moore
 + 16.85 WR_DK_Metcalf + 6.24 WR_DaeSean_Hamilton + 7.37 WR_Danny_Amendola
 + 8.09 WR_Darius_Slayton + 8.58 WR_Darnell_Mooney + 7.74 WR_David_Moore
 + 13.55 WR_DeAndre_Hopkins + 8.53 WR_DeVante_Parker
 + 4.77 WR_Demarcus_Robinson + 3.89 WR_Devin_Duvernay
 + 10.66 WR_Diontae_Johnson + 1.25 WR_Diontae_Spencer + 2.07 WR_Freddie_Swain
 + 4.38 WR_Gabriel_Davis + 5.94 WR_Golden_Tate + 6.2 WR_Henry_Ruggs_III
 + 8.3 WR_Hunter_Renfrow + 3.23 WR_Isaiah_McKenzie + 5.51 WR_Jakeem_Grant
 + 4.04 WR_Jalen_Guyton + 5.75 WR_James_Washington + 2.42 WR_Javon_Wims
 + 8.96 WR_Jerry_Jeudy + 5.99 WR_John_Brown + 10.34 WR_JuJu_Smith_Schuster
 + 15.28 WR_Julio_Jones + 15.48 WR_Justin_Jefferson + 8.13 WR_K.J._Hamler
 + 3.3 WR_Kalif_Raymond + 15.37 WR_Keelan_Cole + 14.3 WR_Keenan_Allen
 + 12.97 WR_Kenny_Golladay + 4.95 WR_Kenny_Stills + 4.86 WR_Larry_Fitzgerald
 + 8.06 WR_Laviska_Shenault_Jr. + 0.97 WR_Malcolm_Perry
 + 6.65 WR_Marcus_Johnson + 7.5 WR_Marquise_Brown + 5.56 WR_Marvin_Hall
 + 10.46 WR_Marvin_Jones + 6.91 WR_Mecole_Hardman + 6.68 WR_Michael_Gallup
 + 2.24 WR_Michael_Pittman + 13.44 WR_Mike_Williams + 3.74 WR_Miles_Boykin
 + 9.25 WR_Nelson_Agholor + 2.3 WR_Noah_Brown + 2.4 WR_Olamide_Zaccheaus
 + 6.26 WR_Preston_Williams + 11.65 WR_Randall_Cobb + 8.93 WR_Robby_Anderson
 + 6.69 WR_Russell_Gage + 15.55 WR_Stefon_Diggs + 9.37 WR_Sterling_Shepard
 + 3.65 WR_T.Y._Hilton + 1.13 WR_Ted_Ginn + 12.29 WR_Tim_Patrick
 + 18.51 WR_Tyler_Lockett + 12.41 WR_Tyreek_Hill + 0.54 WR_Tyrie_Cleveland
 + 16.91 WR_Will_Fuller + 5.66 WR_Willie_Snead + 6.48 WR_Zach_Pascal
Subject To
_C1: 4300 DEF_ARI + 3300 DEF_ATL + 4500 DEF_BAL + 3900 DEF_BUF + 3100 DEF_CAR
 + 4000 DEF_CHI + 3000 DEF_DAL + 4200 DEF_DEN + 3200 DEF_DET + 3700 DEF_HOU
 + 4800 DEF_IND + 3500 DEF_JAX + 4600 DEF_KC + 4200 DEF_LAC + 3600 DEF_LV
 + 4400 DEF_MIA + 3400 DEF_MIN + 4100 DEF_NYG + 5000 DEF_PIT + 3500 DEF_SEA
 + 3800 DEF_TEN + 4700 DEF_WSH + 6600 QB_Ben_DiNucci
 + 7700 QB_Ben_Roethlisberger + 6000 QB_Chad_Henne + 6900 QB_Daniel_Jones
 + 7000 QB_Derek_Carr + 8300 QB_Deshaun_Watson + 7200 QB_Drew_Lock
 + 8200 QB_Josh_Allen + 7900 QB_Justin_Herbert + 7100 QB_Kirk_Cousins
 + 8600 QB_Kyler_Murray + 8100 QB_Lamar_Jackson + 6000 QB_Mason_Rudolph
 + 7600 QB_Matt_Ryan + 7500 QB_Matthew_Stafford + 6800 QB_Nick_Foles
 + 9300 QB_Patrick_Mahomes + 6900 QB_Philip_Rivers + 9000 QB_Russell_Wilson
 + 6400 QB_Ryan_Fitzpatrick + 7400 QB_Ryan_Tannehill
 + 7300 QB_Teddy_Bridgewater + 6700 QB_Tua_Tagovailoa
 + 5300 RB_Adrian_Peterson + 5100 RB_Alexander_Mattison
 + 4500 RB_Ameer_Abdullah + 5000 RB_Benny_Snell + 5000 RB_Brian_Hill
 + 7400 RB_Chase_Edmonds + 7600 RB_Chris_Carson
 + 7000 RB_Clyde_Edwards_Helaire + 6000 RB_D'Andre_Swift + 9300 RB_Dalvin_Cook
 + 4600 RB_Darrel_Williams + 4500 RB_Darwin_Thompson + 6800 RB_David_Johnson
 + 5900 RB_David_Montgomery + 4500 RB_DeAndre_Washington
 + 5100 RB_DeeJay_Dallas + 8900 RB_Derrick_Henry + 5800 RB_Devin_Singletary
 + 5500 RB_Devonta_Freeman + 4900 RB_Devontae_Booker + 4600 RB_Dion_Lewis
 + 4800 RB_Duke_Johnson + 4500 RB_Elijhaa_Penny + 8000 RB_Ezekiel_Elliott
 + 4500 RB_Gabe_Nabers + 5400 RB_Gus_Edwards + 4800 RB_Ito_Smith
 + 5300 RB_J.K._Dobbins + 4500 RB_Jalen_Richard + 8200 RB_James_Conner
 + 7300 RB_James_Robinson + 4500 RB_Jaylen_Samuels + 4600 RB_Jeremy_McNichols
 + 6400 RB_Jonathan_Taylor + 5600 RB_Jordan_Wilkins + 7700 RB_Josh_Jacobs
 + 5400 RB_Joshua_Kelley + 5900 RB_Justin_Jackson + 6000 RB_Kenyan_Drake
 + 5200 RB_Kerryon_Johnson + 4500 RB_Khari_Blasingame + 5500 RB_Le'Veon_Bell
 + 5600 RB_Mark_Ingram + 4700 RB_Matt_Breida + 6600 RB_Melvin_Gordon
 + 4600 RB_Mike_Boone + 7800 RB_Mike_Davis + 5400 RB_Nyheim_Hines
 + 4500 RB_Patrick_Laird + 5700 RB_Phillip_Lindsay + 4800 RB_Qadree_Ollison
 + 4500 RB_Rico_Dowdle + 4900 RB_Royce_Freeman + 4600 RB_Ryan_Nall
 + 6900 RB_Todd_Gurley + 4900 RB_Tony_Pollard + 5200 RB_Travis_Homer
 + 4700 RB_Trenton_Cannon + 4500 RB_Troymaine_Pope + 5500 RB_Wayne_Gallman
 + 5800 RB_Zack_Moss + 4200 TE_Adam_Shaheen + 5000 TE_Albert_Okwuegbunam
 + 4900 TE_Anthony_Firkser + 4000 TE_Blake_Bell + 4000 TE_Chris_Manhertz
 + 4300 TE_Cole_Kmet + 5100 TE_Dalton_Schultz + 4300 TE_Dan_Arnold
 + 4000 TE_Darrell_Daniels + 5200 TE_Darren_Fells + 6400 TE_Darren_Waller
 + 4200 TE_Demetrius_Harris + 4000 TE_Deon_Yelder + 4100 TE_Durham_Smythe
 + 5400 TE_Eric_Ebron + 5500 TE_Evan_Engram + 4100 TE_Foster_Moreau
 + 4000 TE_Geoff_Swaim + 4800 TE_Greg_Olsen + 5600 TE_Hayden_Hurst
 + 5600 TE_Hunter_Henry + 4600 TE_Ian_Thomas + 4600 TE_Irv_Smith
 + 4000 TE_Isaac_Nauta + 4900 TE_Jack_Doyle + 4300 TE_Jacob_Hollister
 + 4100 TE_James_O'Shaughnessy + 4300 TE_Jason_Witten + 4300 TE_Jesse_James
 + 5300 TE_Jimmy_Graham + 5700 TE_Jonnu_Smith + 4100 TE_Kaden_Smith
 + 4400 TE_Kyle_Rudolph + 4000 TE_Levine_Toilolo + 4000 TE_Luke_Stocker
 + 6600 TE_Mark_Andrews + 5300 TE_Mike_Gesicki + 5000 TE_Mo_Alie_Cox
 + 4000 TE_MyCole_Pruitt + 4100 TE_Nick_Boyle + 4100 TE_Nick_Keizer
 + 4000 TE_Nick_Vannett + 5800 TE_Noah_Fant + 4100 TE_Pharaoh_Brown
 + 4200 TE_Reggie_Gilliam + 4000 TE_Ricky_Seals_Jones + 6000 TE_T.J._Hockenson
 + 8000 TE_Travis_Kelce + 5500 TE_Trey_Burton + 4000 TE_Tyler_Davis
 + 4700 TE_Tyler_Kroft + 4200 TE_Vance_McDonald + 4600 TE_Will_Dissly
 + 7600 WR_A.J._Brown + 5000 WR_Adam_Humphries + 7700 WR_Adam_Thielen
 + 6900 WR_Allen_Robinson + 7000 WR_Amari_Cooper + 4700 WR_Andy_Isabella
 + 5100 WR_Anthony_Miller + 4500 WR_Ashton_Dulin + 4600 WR_Austin_Mack
 + 6100 WR_Brandin_Cooks + 4600 WR_Brandon_Powell + 4500 WR_Brandon_Zylstra
 + 4700 WR_Byron_Pringle + 4500 WR_C.J._Board + 8000 WR_Calvin_Ridley
 + 5800 WR_CeeDee_Lamb + 4500 WR_Chad_Beebe + 6300 WR_Chase_Claypool
 + 4600 WR_Chris_Conley + 4800 WR_Christian_Blake + 5900 WR_Christian_Kirk
 + 5300 WR_Cole_Beasley + 4700 WR_Cordarrelle_Patterson + 6000 WR_Corey_Davis
 + 5600 WR_Curtis_Samuel + 6400 WR_D.J._Chark + 7000 WR_D.J._Moore
 + 8100 WR_DK_Metcalf + 4600 WR_DaeSean_Hamilton + 5300 WR_Danny_Amendola
 + 5900 WR_Darius_Slayton + 5500 WR_Darnell_Mooney + 5200 WR_David_Moore
 + 8800 WR_DeAndre_Hopkins + 6300 WR_DeVante_Parker
 + 5400 WR_Demarcus_Robinson + 4800 WR_Devin_Duvernay
 + 6000 WR_Diontae_Johnson + 4500 WR_Diontae_Spencer + 4600 WR_Freddie_Swain
 + 4800 WR_Gabriel_Davis + 5500 WR_Golden_Tate + 5700 WR_Henry_Ruggs_III
 + 5100 WR_Hunter_Renfrow + 4600 WR_Isaiah_McKenzie + 4600 WR_Jakeem_Grant
 + 4900 WR_Jalen_Guyton + 4500 WR_James_Proche + 5000 WR_James_Washington
 + 4600 WR_Javon_Wims + 5700 WR_Jerry_Jeudy + 5500 WR_John_Brown
 + 6500 WR_JuJu_Smith_Schuster + 8200 WR_Julio_Jones
 + 6800 WR_Justin_Jefferson + 4800 WR_K.J._Hamler + 4900 WR_Kalif_Raymond
 + 5200 WR_Keelan_Cole + 7500 WR_Keenan_Allen + 7300 WR_Kenny_Golladay
 + 4600 WR_Kenny_Stills + 5000 WR_Larry_Fitzgerald
 + 5400 WR_Laviska_Shenault_Jr. + 4500 WR_Malcolm_Perry
 + 4900 WR_Marcus_Johnson + 5800 WR_Marquise_Brown + 4600 WR_Marvin_Hall
 + 6100 WR_Marvin_Jones + 5600 WR_Mecole_Hardman + 5400 WR_Michael_Gallup
 + 5000 WR_Michael_Pittman + 6200 WR_Mike_Williams + 4800 WR_Miles_Boykin
 + 5000 WR_Nelson_Agholor + 4600 WR_Noah_Brown + 4700 WR_Olamide_Zaccheaus
 + 5100 WR_Preston_Williams + 5400 WR_Randall_Cobb + 6600 WR_Robby_Anderson
 + 5400 WR_Russell_Gage + 7600 WR_Stefon_Diggs + 5500 WR_Sterling_Shepard
 + 5300 WR_T.Y._Hilton + 4500 WR_Ted_Ginn + 5300 WR_Tim_Patrick
 + 7400 WR_Tyler_Lockett + 8300 WR_Tyreek_Hill + 4500 WR_Tyrie_Cleveland
 + 7100 WR_Will_Fuller + 5100 WR_Willie_Snead + 5200 WR_Zach_Pascal <= 60000
_C10: RB_Adrian_Peterson + RB_Alexander_Mattison + RB_Ameer_Abdullah
 + RB_Benny_Snell + RB_Brian_Hill + RB_Chase_Edmonds + RB_Chris_Carson
 + RB_Clyde_Edwards_Helaire + RB_D'Andre_Swift + RB_Dalvin_Cook
 + RB_Darrel_Williams + RB_David_Johnson + RB_David_Montgomery
 + RB_DeeJay_Dallas + RB_Derrick_Henry + RB_Devin_Singletary
 + RB_Devonta_Freeman + RB_Devontae_Booker + RB_Dion_Lewis + RB_Duke_Johnson
 + RB_Elijhaa_Penny + RB_Ezekiel_Elliott + RB_Gabe_Nabers + RB_Gus_Edwards
 + RB_Ito_Smith + RB_J.K._Dobbins + RB_Jalen_Richard + RB_James_Conner
 + RB_James_Robinson + RB_Jeremy_McNichols + RB_Jonathan_Taylor
 + RB_Jordan_Wilkins + RB_Josh_Jacobs + RB_Joshua_Kelley + RB_Justin_Jackson
 + RB_Kenyan_Drake + RB_Kerryon_Johnson + RB_Le'Veon_Bell + RB_Mark_Ingram
 + RB_Matt_Breida + RB_Melvin_Gordon + RB_Mike_Boone + RB_Mike_Davis
 + RB_Nyheim_Hines + RB_Phillip_Lindsay + RB_Royce_Freeman + RB_Todd_Gurley
 + RB_Tony_Pollard + RB_Travis_Homer + RB_Trenton_Cannon + RB_Troymaine_Pope
 + RB_Wayne_Gallman + RB_Zack_Moss + TE_Adam_Shaheen + TE_Albert_Okwuegbunam
 + TE_Anthony_Firkser + TE_Blake_Bell + TE_Chris_Manhertz + TE_Cole_Kmet
 + TE_Dalton_Schultz + TE_Dan_Arnold + TE_Darrell_Daniels + TE_Darren_Fells
 + TE_Darren_Waller + TE_Demetrius_Harris + TE_Deon_Yelder + TE_Durham_Smythe
 + TE_Eric_Ebron + TE_Evan_Engram + TE_Foster_Moreau + TE_Geoff_Swaim
 + TE_Greg_Olsen + TE_Hayden_Hurst + TE_Hunter_Henry + TE_Ian_Thomas
 + TE_Irv_Smith + TE_Isaac_Nauta + TE_Jack_Doyle + TE_Jacob_Hollister
 + TE_James_O'Shaughnessy + TE_Jason_Witten + TE_Jesse_James + TE_Jimmy_Graham
 + TE_Jonnu_Smith + TE_Kaden_Smith + TE_Kyle_Rudolph + TE_Levine_Toilolo
 + TE_Luke_Stocker + TE_Mark_Andrews + TE_Mike_Gesicki + TE_Mo_Alie_Cox
 + TE_MyCole_Pruitt + TE_Nick_Boyle + TE_Nick_Keizer + TE_Nick_Vannett
 + TE_Noah_Fant + TE_Pharaoh_Brown + TE_Reggie_Gilliam + TE_Ricky_Seals_Jones
 + TE_T.J._Hockenson + TE_Travis_Kelce + TE_Trey_Burton + TE_Tyler_Davis
 + TE_Tyler_Kroft + TE_Vance_McDonald + TE_Will_Dissly + WR_A.J._Brown
 + WR_Adam_Thielen + WR_Allen_Robinson + WR_Amari_Cooper + WR_Anthony_Miller
 + WR_Brandin_Cooks + WR_Calvin_Ridley + WR_CeeDee_Lamb + WR_Chase_Claypool
 + WR_Christian_Kirk + WR_Cole_Beasley + WR_Corey_Davis + WR_Curtis_Samuel
 + WR_D.J._Chark + WR_D.J._Moore + WR_DK_Metcalf + WR_DaeSean_Hamilton
 + WR_Danny_Amendola + WR_Darius_Slayton + WR_Darnell_Mooney + WR_David_Moore
 + WR_DeAndre_Hopkins + WR_DeVante_Parker + WR_Diontae_Johnson
 + WR_Henry_Ruggs_III + WR_Hunter_Renfrow + WR_Jerry_Jeudy
 + WR_JuJu_Smith_Schuster + WR_Julio_Jones + WR_Justin_Jefferson
 + WR_K.J._Hamler + WR_Keelan_Cole + WR_Keenan_Allen + WR_Kenny_Golladay
 + WR_Laviska_Shenault_Jr. + WR_Marcus_Johnson + WR_Marquise_Brown
 + WR_Marvin_Jones + WR_Mecole_Hardman + WR_Michael_Gallup + WR_Mike_Williams
 + WR_Nelson_Agholor + WR_Preston_Williams + WR_Randall_Cobb
 + WR_Robby_Anderson + WR_Russell_Gage + WR_Stefon_Diggs + WR_Sterling_Shepard
 + WR_Tim_Patrick + WR_Tyler_Lockett + WR_Tyreek_Hill + WR_Will_Fuller
 + WR_Zach_Pascal = 7
_C2: QB_Ben_DiNucci + QB_Ben_Roethlisberger + QB_Chad_Henne + QB_Daniel_Jones
 + QB_Derek_Carr + QB_Deshaun_Watson + QB_Drew_Lock + QB_Josh_Allen
 + QB_Justin_Herbert + QB_Kirk_Cousins + QB_Kyler_Murray + QB_Lamar_Jackson
 + QB_Mason_Rudolph + QB_Matt_Ryan + QB_Matthew_Stafford + QB_Nick_Foles
 + QB_Patrick_Mahomes + QB_Philip_Rivers + QB_Russell_Wilson
 + QB_Ryan_Fitzpatrick + QB_Ryan_Tannehill + QB_Teddy_Bridgewater
 + QB_Tua_Tagovailoa = 1
_C3: DEF_ARI + DEF_ATL + DEF_BAL + DEF_BUF + DEF_CAR + DEF_CHI + DEF_DAL
 + DEF_DEN + DEF_DET + DEF_HOU + DEF_IND + DEF_JAX + DEF_KC + DEF_LAC + DEF_LV
 + DEF_MIA + DEF_MIN + DEF_NYG + DEF_PIT + DEF_SEA + DEF_TEN + DEF_WSH = 1
_C4: RB_Adrian_Peterson + RB_Alexander_Mattison + RB_Ameer_Abdullah
 + RB_Benny_Snell + RB_Brian_Hill + RB_Chase_Edmonds + RB_Chris_Carson
 + RB_Clyde_Edwards_Helaire + RB_D'Andre_Swift + RB_Dalvin_Cook
 + RB_Darrel_Williams + RB_David_Johnson + RB_David_Montgomery
 + RB_DeeJay_Dallas + RB_Derrick_Henry + RB_Devin_Singletary
 + RB_Devonta_Freeman + RB_Devontae_Booker + RB_Dion_Lewis + RB_Duke_Johnson
 + RB_Elijhaa_Penny + RB_Ezekiel_Elliott + RB_Gabe_Nabers + RB_Gus_Edwards
 + RB_Ito_Smith + RB_J.K._Dobbins + RB_Jalen_Richard + RB_James_Conner
 + RB_James_Robinson + RB_Jeremy_McNichols + RB_Jonathan_Taylor
 + RB_Jordan_Wilkins + RB_Josh_Jacobs + RB_Joshua_Kelley + RB_Justin_Jackson
 + RB_Kenyan_Drake + RB_Kerryon_Johnson + RB_Le'Veon_Bell + RB_Mark_Ingram
 + RB_Matt_Breida + RB_Melvin_Gordon + RB_Mike_Boone + RB_Mike_Davis
 + RB_Nyheim_Hines + RB_Phillip_Lindsay + RB_Royce_Freeman + RB_Todd_Gurley
 + RB_Tony_Pollard + RB_Travis_Homer + RB_Trenton_Cannon + RB_Troymaine_Pope
 + RB_Wayne_Gallman + RB_Zack_Moss >= 2
_C5: RB_Adrian_Peterson + RB_Alexander_Mattison + RB_Ameer_Abdullah
 + RB_Benny_Snell + RB_Brian_Hill + RB_Chase_Edmonds + RB_Chris_Carson
 + RB_Clyde_Edwards_Helaire + RB_D'Andre_Swift + RB_Dalvin_Cook
 + RB_Darrel_Williams + RB_David_Johnson + RB_David_Montgomery
 + RB_DeeJay_Dallas + RB_Derrick_Henry + RB_Devin_Singletary
 + RB_Devonta_Freeman + RB_Devontae_Booker + RB_Dion_Lewis + RB_Duke_Johnson
 + RB_Elijhaa_Penny + RB_Ezekiel_Elliott + RB_Gabe_Nabers + RB_Gus_Edwards
 + RB_Ito_Smith + RB_J.K._Dobbins + RB_Jalen_Richard + RB_James_Conner
 + RB_James_Robinson + RB_Jeremy_McNichols + RB_Jonathan_Taylor
 + RB_Jordan_Wilkins + RB_Josh_Jacobs + RB_Joshua_Kelley + RB_Justin_Jackson
 + RB_Kenyan_Drake + RB_Kerryon_Johnson + RB_Le'Veon_Bell + RB_Mark_Ingram
 + RB_Matt_Breida + RB_Melvin_Gordon + RB_Mike_Boone + RB_Mike_Davis
 + RB_Nyheim_Hines + RB_Phillip_Lindsay + RB_Royce_Freeman + RB_Todd_Gurley
 + RB_Tony_Pollard + RB_Travis_Homer + RB_Trenton_Cannon + RB_Troymaine_Pope
 + RB_Wayne_Gallman + RB_Zack_Moss <= 3
_C6: WR_A.J._Brown + WR_Adam_Thielen + WR_Allen_Robinson + WR_Amari_Cooper
 + WR_Anthony_Miller + WR_Brandin_Cooks + WR_Calvin_Ridley + WR_CeeDee_Lamb
 + WR_Chase_Claypool + WR_Christian_Kirk + WR_Cole_Beasley + WR_Corey_Davis
 + WR_Curtis_Samuel + WR_D.J._Chark + WR_D.J._Moore + WR_DK_Metcalf
 + WR_DaeSean_Hamilton + WR_Danny_Amendola + WR_Darius_Slayton
 + WR_Darnell_Mooney + WR_David_Moore + WR_DeAndre_Hopkins + WR_DeVante_Parker
 + WR_Diontae_Johnson + WR_Henry_Ruggs_III + WR_Hunter_Renfrow
 + WR_Jerry_Jeudy + WR_JuJu_Smith_Schuster + WR_Julio_Jones
 + WR_Justin_Jefferson + WR_K.J._Hamler + WR_Keelan_Cole + WR_Keenan_Allen
 + WR_Kenny_Golladay + WR_Laviska_Shenault_Jr. + WR_Marcus_Johnson
 + WR_Marquise_Brown + WR_Marvin_Jones + WR_Mecole_Hardman + WR_Michael_Gallup
 + WR_Mike_Williams + WR_Nelson_Agholor + WR_Preston_Williams
 + WR_Randall_Cobb + WR_Robby_Anderson + WR_Russell_Gage + WR_Stefon_Diggs
 + WR_Sterling_Shepard + WR_Tim_Patrick + WR_Tyler_Lockett + WR_Tyreek_Hill
 + WR_Will_Fuller + WR_Zach_Pascal >= 3
_C7: WR_A.J._Brown + WR_Adam_Thielen + WR_Allen_Robinson + WR_Amari_Cooper
 + WR_Anthony_Miller + WR_Brandin_Cooks + WR_Calvin_Ridley + WR_CeeDee_Lamb
 + WR_Chase_Claypool + WR_Christian_Kirk + WR_Cole_Beasley + WR_Corey_Davis
 + WR_Curtis_Samuel + WR_D.J._Chark + WR_D.J._Moore + WR_DK_Metcalf
 + WR_DaeSean_Hamilton + WR_Danny_Amendola + WR_Darius_Slayton
 + WR_Darnell_Mooney + WR_David_Moore + WR_DeAndre_Hopkins + WR_DeVante_Parker
 + WR_Diontae_Johnson + WR_Henry_Ruggs_III + WR_Hunter_Renfrow
 + WR_Jerry_Jeudy + WR_JuJu_Smith_Schuster + WR_Julio_Jones
 + WR_Justin_Jefferson + WR_K.J._Hamler + WR_Keelan_Cole + WR_Keenan_Allen
 + WR_Kenny_Golladay + WR_Laviska_Shenault_Jr. + WR_Marcus_Johnson
 + WR_Marquise_Brown + WR_Marvin_Jones + WR_Mecole_Hardman + WR_Michael_Gallup
 + WR_Mike_Williams + WR_Nelson_Agholor + WR_Preston_Williams
 + WR_Randall_Cobb + WR_Robby_Anderson + WR_Russell_Gage + WR_Stefon_Diggs
 + WR_Sterling_Shepard + WR_Tim_Patrick + WR_Tyler_Lockett + WR_Tyreek_Hill
 + WR_Will_Fuller + WR_Zach_Pascal <= 4
_C8: TE_Adam_Shaheen + TE_Albert_Okwuegbunam + TE_Anthony_Firkser
 + TE_Blake_Bell + TE_Chris_Manhertz + TE_Cole_Kmet + TE_Dalton_Schultz
 + TE_Dan_Arnold + TE_Darrell_Daniels + TE_Darren_Fells + TE_Darren_Waller
 + TE_Demetrius_Harris + TE_Deon_Yelder + TE_Durham_Smythe + TE_Eric_Ebron
 + TE_Evan_Engram + TE_Foster_Moreau + TE_Geoff_Swaim + TE_Greg_Olsen
 + TE_Hayden_Hurst + TE_Hunter_Henry + TE_Ian_Thomas + TE_Irv_Smith
 + TE_Isaac_Nauta + TE_Jack_Doyle + TE_Jacob_Hollister
 + TE_James_O'Shaughnessy + TE_Jason_Witten + TE_Jesse_James + TE_Jimmy_Graham
 + TE_Jonnu_Smith + TE_Kaden_Smith + TE_Kyle_Rudolph + TE_Levine_Toilolo
 + TE_Luke_Stocker + TE_Mark_Andrews + TE_Mike_Gesicki + TE_Mo_Alie_Cox
 + TE_MyCole_Pruitt + TE_Nick_Boyle + TE_Nick_Keizer + TE_Nick_Vannett
 + TE_Noah_Fant + TE_Pharaoh_Brown + TE_Reggie_Gilliam + TE_Ricky_Seals_Jones
 + TE_T.J._Hockenson + TE_Travis_Kelce + TE_Trey_Burton + TE_Tyler_Davis
 + TE_Tyler_Kroft + TE_Vance_McDonald + TE_Will_Dissly >= 1
_C9: TE_Adam_Shaheen + TE_Albert_Okwuegbunam + TE_Anthony_Firkser
 + TE_Blake_Bell + TE_Chris_Manhertz + TE_Cole_Kmet + TE_Dalton_Schultz
 + TE_Dan_Arnold + TE_Darrell_Daniels + TE_Darren_Fells + TE_Darren_Waller
 + TE_Demetrius_Harris + TE_Deon_Yelder + TE_Durham_Smythe + TE_Eric_Ebron
 + TE_Evan_Engram + TE_Foster_Moreau + TE_Geoff_Swaim + TE_Greg_Olsen
 + TE_Hayden_Hurst + TE_Hunter_Henry + TE_Ian_Thomas + TE_Irv_Smith
 + TE_Isaac_Nauta + TE_Jack_Doyle + TE_Jacob_Hollister
 + TE_James_O'Shaughnessy + TE_Jason_Witten + TE_Jesse_James + TE_Jimmy_Graham
 + TE_Jonnu_Smith + TE_Kaden_Smith + TE_Kyle_Rudolph + TE_Levine_Toilolo
 + TE_Luke_Stocker + TE_Mark_Andrews + TE_Mike_Gesicki + TE_Mo_Alie_Cox
 + TE_MyCole_Pruitt + TE_Nick_Boyle + TE_Nick_Keizer + TE_Nick_Vannett
 + TE_Noah_Fant + TE_Pharaoh_Brown + TE_Reggie_Gilliam + TE_Ricky_Seals_Jones
 + TE_T.J._Hockenson + TE_Travis_Kelce + TE_Trey_Burton + TE_Tyler_Davis
 + TE_Tyler_Kroft + TE_Vance_McDonald + TE_Will_Dissly <= 2
Binaries
DEF_ARI
DEF_ATL
DEF_BAL
DEF_BUF
DEF_CAR
DEF_CHI
DEF_DAL
DEF_DEN
DEF_DET
DEF_HOU
DEF_IND
DEF_JAX
DEF_KC
DEF_LAC
DEF_LV
DEF_MIA
DEF_MIN
DEF_NYG
DEF_PIT
DEF_SEA
DEF_TEN
DEF_WSH
QB_Ben_DiNucci
QB_Ben_Roethlisberger
QB_Chad_Henne
QB_Daniel_Jones
QB_Derek_Carr
QB_Deshaun_Watson
QB_Drew_Lock
QB_Josh_Allen
QB_Justin_Herbert
QB_Kirk_Cousins
QB_Kyler_Murray
QB_Lamar_Jackson
QB_Mason_Rudolph
QB_Matt_Ryan
QB_Matthew_Stafford
QB_Nick_Foles
QB_Patrick_Mahomes
QB_Philip_Rivers
QB_Russell_Wilson
QB_Ryan_Fitzpatrick
QB_Ryan_Tannehill
QB_Teddy_Bridgewater
QB_Tua_Tagovailoa
RB_Adrian_Peterson
RB_Alexander_Mattison
RB_Ameer_Abdullah
RB_Benny_Snell
RB_Brian_Hill
RB_Chase_Edmonds
RB_Chris_Carson
RB_Clyde_Edwards_Helaire
RB_D'Andre_Swift
RB_Dalvin_Cook
RB_Darrel_Williams
RB_Darwin_Thompson
RB_David_Johnson
RB_David_Montgomery
RB_DeAndre_Washington
RB_DeeJay_Dallas
RB_Derrick_Henry
RB_Devin_Singletary
RB_Devonta_Freeman
RB_Devontae_Booker
RB_Dion_Lewis
RB_Duke_Johnson
RB_Elijhaa_Penny
RB_Ezekiel_Elliott
RB_Gabe_Nabers
RB_Gus_Edwards
RB_Ito_Smith
RB_J.K._Dobbins
RB_Jalen_Richard
RB_James_Conner
RB_James_Robinson
RB_Jaylen_Samuels
RB_Jeremy_McNichols
RB_Jonathan_Taylor
RB_Jordan_Wilkins
RB_Josh_Jacobs
RB_Joshua_Kelley
RB_Justin_Jackson
RB_Kenyan_Drake
RB_Kerryon_Johnson
RB_Khari_Blasingame
RB_Le'Veon_Bell
RB_Mark_Ingram
RB_Matt_Breida
RB_Melvin_Gordon
RB_Mike_Boone
RB_Mike_Davis
RB_Nyheim_Hines
RB_Patrick_Laird
RB_Phillip_Lindsay
RB_Qadree_Ollison
RB_Rico_Dowdle
RB_Royce_Freeman
RB_Ryan_Nall
RB_Todd_Gurley
RB_Tony_Pollard
RB_Travis_Homer
RB_Trenton_Cannon
RB_Troymaine_Pope
RB_Wayne_Gallman
RB_Zack_Moss
TE_Adam_Shaheen
TE_Albert_Okwuegbunam
TE_Anthony_Firkser
TE_Blake_Bell
TE_Chris_Manhertz
TE_Cole_Kmet
TE_Dalton_Schultz
TE_Dan_Arnold
TE_Darrell_Daniels
TE_Darren_Fells
TE_Darren_Waller
TE_Demetrius_Harris
TE_Deon_Yelder
TE_Durham_Smythe
TE_Eric_Ebron
TE_Evan_Engram
TE_Foster_Moreau
TE_Geoff_Swaim
TE_Greg_Olsen
TE_Hayden_Hurst
TE_Hunter_Henry
TE_Ian_Thomas
TE_Irv_Smith
TE_Isaac_Nauta
TE_Jack_Doyle
TE_Jacob_Hollister
TE_James_O'Shaughnessy
TE_Jason_Witten
TE_Jesse_James
TE_Jimmy_Graham
TE_Jonnu_Smith
TE_Kaden_Smith
TE_Kyle_Rudolph
TE_Levine_Toilolo
TE_Luke_Stocker
TE_Mark_Andrews
TE_Mike_Gesicki
TE_Mo_Alie_Cox
TE_MyCole_Pruitt
TE_Nick_Boyle
TE_Nick_Keizer
TE_Nick_Vannett
TE_Noah_Fant
TE_Pharaoh_Brown
TE_Reggie_Gilliam
TE_Ricky_Seals_Jones
TE_T.J._Hockenson
TE_Travis_Kelce
TE_Trey_Burton
TE_Tyler_Davis
TE_Tyler_Kroft
TE_Vance_McDonald
TE_Will_Dissly
WR_A.J._Brown
WR_Adam_Humphries
WR_Adam_Thielen
WR_Allen_Robinson
WR_Amari_Cooper
WR_Andy_Isabella
WR_Anthony_Miller
WR_Ashton_Dulin
WR_Austin_Mack
WR_Brandin_Cooks
WR_Brandon_Powell
WR_Brandon_Zylstra
WR_Byron_Pringle
WR_C.J._Board
WR_Calvin_Ridley
WR_CeeDee_Lamb
WR_Chad_Beebe
WR_Chase_Claypool
WR_Chris_Conley
WR_Christian_Blake
WR_Christian_Kirk
WR_Cole_Beasley
WR_Cordarrelle_Patterson
WR_Corey_Davis
WR_Curtis_Samuel
WR_D.J._Chark
WR_D.J._Moore
WR_DK_Metcalf
WR_DaeSean_Hamilton
WR_Danny_Amendola
WR_Darius_Slayton
WR_Darnell_Mooney
WR_David_Moore
WR_DeAndre_Hopkins
WR_DeVante_Parker
WR_Demarcus_Robinson
WR_Devin_Duvernay
WR_Diontae_Johnson
WR_Diontae_Spencer
WR_Freddie_Swain
WR_Gabriel_Davis
WR_Golden_Tate
WR_Henry_Ruggs_III
WR_Hunter_Renfrow
WR_Isaiah_McKenzie
WR_Jakeem_Grant
WR_Jalen_Guyton
WR_James_Proche
WR_James_Washington
WR_Javon_Wims
WR_Jerry_Jeudy
WR_John_Brown
WR_JuJu_Smith_Schuster
WR_Julio_Jones
WR_Justin_Jefferson
WR_K.J._Hamler
WR_Kalif_Raymond
WR_Keelan_Cole
WR_Keenan_Allen
WR_Kenny_Golladay
WR_Kenny_Stills
WR_Larry_Fitzgerald
WR_Laviska_Shenault_Jr.
WR_Malcolm_Perry
WR_Marcus_Johnson
WR_Marquise_Brown
WR_Marvin_Hall
WR_Marvin_Jones
WR_Mecole_Hardman
WR_Michael_Gallup
WR_Michael_Pittman
WR_Mike_Williams
WR_Miles_Boykin
WR_Nelson_Agholor
WR_Noah_Brown
WR_Olamide_Zaccheaus
WR_Preston_Williams
WR_Randall_Cobb
WR_Robby_Anderson
WR_Russell_Gage
WR_Stefon_Diggs
WR_Sterling_Shepard
WR_T.Y._Hilton
WR_Ted_Ginn
WR_Tim_Patrick
WR_Tyler_Lockett
WR_Tyreek_Hill
WR_Tyrie_Cleveland
WR_Will_Fuller
WR_Willie_Snead
WR_Zach_Pascal
End
